NAME : circle10
COMMENT : 10 locations forming a circle
TYPE : TSP
DIMENSION : 10
EDGE_WEIGHT_TYPE : EUC_2D
NODE_COORD_SECTION
1 10000.0000 20000.0000
2 14142.1356 18485.2814
3 18485.2814 14142.1356
4 20000.0000 10000.0000
5 18485.2814 5857.8644
6 14142.1356 1414.2136
7 10000.0000 0.0000
8 5857.8644 1414.2136
9 1414.2136 5857.8644
10 0.0000 10000.0000
EOF
